language Essence 1.3

letting class be function(1 --> 2, 2 --> 1, 3 --> 1, 4 --> 2, 5 --> 2, 6 --> 2, 7 --> 3)
letting deck_length be 32
letting deck_width be 75
letting length be function(1 --> 24, 2 --> 29, 3 --> 11, 4 --> 8, 5 --> 8, 6 --> 16, 7 --> 21)
letting n_classes be 3
letting n_containers be 7
letting separation be function({1, 2} --> 73, {1, 3} --> 68, {2, 3} --> 68)
letting width be function(1 --> 4, 2 --> 28, 3 --> 26, 4 --> 13, 5 --> 6, 6 --> 44, 7 --> 8)
